Rodando pra 1h
Optimize a model with 69 rows, 80 columns and 310 nonzeros
Coefficient statistics:
  Matrix range    [1e+00, 1e+06]
  Objective range [1e+00, 1e+00]
  Bounds range    [1e+00, 1e+06]
  RHS range       [1e+00, 4e+00]
Presolve time: 0.00s
Presolved: 69 rows, 80 columns, 310 nonzeros
Variable types: 45 continuous, 35 integer (35 binary)
Found heuristic solution: objective 182.0000000

Root relaxation: objective 0.000000e+00, 27 iterations, 0.00 seconds

    Nodes    |    Current Node    |     Objective Bounds      |     Work
 Expl Unexpl |  Obj  Depth IntInf | Incumbent    BestBd   Gap | It/Node Time

     0     0    0.00000    0   14  182.00000    0.00000   100%     -    0s
     0     0    0.00000    0   23  182.00000    0.00000   100%     -    0s
     0     0    0.00000    0   22  182.00000    0.00000   100%     -    0s
     0     0    0.00000    0   18  182.00000    0.00000   100%     -    0s
     0     0    0.00000    0   20  182.00000    0.00000   100%     -    0s
     0     0    0.00000    0   19  182.00000    0.00000   100%     -    0s
     0     0    0.00000    0   21  182.00000    0.00000   100%     -    0s
     0     0    0.00000    0   21  182.00000    0.00000   100%     -    0s
     0     2    0.00000    0   14  182.00000    0.00000   100%     -    0s
*   29    21              17     154.0000000    0.00000   100%  12.0    0s
*  148    53              16     139.0000000   30.75000  77.9%   7.5    0s

Cutting planes:
  Cover: 17
  Implied bound: 6
  MIR: 51
  Flow cover: 34
  Flow path: 3
  Network: 4

Explored 776 nodes (4911 simplex iterations) in 0.16 seconds
Thread count was 1 (of 4 available processors)

Optimal solution found (tolerance 1.00e-04)
Best objective 1.390000000000e+02, best bound 1.390000000000e+02, gap 0.0%
Tempo: 0.16 segundos

0 1 87 26 67 20 68 
1 3 10 36 39 58 16 
2 3 35 36 45 37 37 
2 4 0 3 71 24 66 
(132 101 222 139 187 )

